* ENCODING=ISO-8859-1
NAME          CPLEX
ROWS
 N  obj1    
 G  c1      
 G  c2      
 G  c3      
 G  c4      
 G  c5      
 G  c6      
 G  c7      
 G  c8      
 G  c9      
 G  c10     
 G  c11     
 G  c12     
 G  c13     
 G  c14     
 G  c15     
 G  c16     
 G  c17     
 G  c18     
 G  c19     
 G  c20     
 G  c21     
 G  c22     
 G  c23     
 G  c24     
 G  c25     
 G  c26     
 G  c27     
 G  c28     
 G  c29     
 G  c30     
 G  c31     
 G  c32     
 G  c33     
 G  c34     
 G  c35     
 G  c36     
 G  c37     
 G  c38     
 G  c39     
 G  c40     
 G  c41     
 G  c42     
 G  c43     
 G  c44     
 G  c45     
 G  c46     
 G  c47     
 G  c48     
 G  c49     
 G  c50     
 G  c51     
 G  c52     
 G  c53     
 G  c54     
 G  c55     
 G  c56     
 G  c57     
 G  c58     
 G  c59     
 G  c60     
COLUMNS
    MARK0000  'MARKER'                 'INTORG'
    x1        obj1                            1
    x1        c4                            266
    x1        c23                           412
    x1        c26                           955
    x1        c35                           448
    x1        c49                           248
    x2        obj1                            1
    x2        c9                            984
    x2        c30                           798
    x2        c35                           736
    x2        c38                           958
    x2        c41                           388
    x2        c57                           604
    x3        obj1                            1
    x3        c7                            587
    x3        c12                           743
    x3        c24                           777
    x3        c26                           319
    x3        c40                           191
    x3        c46                           129
    x4        obj1                            1
    x4        c2                            360
    x4        c7                            611
    x4        c18                           771
    x4        c23                           269
    x4        c53                           971
    x5        obj1                            1
    x5        c5                            550
    x5        c12                           849
    x5        c20                           612
    x5        c26                           883
    x5        c37                           295
    x5        c46                           778
    x5        c54                           308
    x5        c56                           753
    x5        c59                           267
    x6        obj1                            1
    x6        c30                           353
    x6        c32                           485
    x6        c40                           935
    x6        c41                           358
    x6        c43                           256
    x6        c44                           957
    x6        c53                           696
    x6        c60                           151
    x7        obj1                            1
    x7        c13                           557
    x7        c30                           259
    x7        c40                           808
    x7        c41                           726
    x7        c60                           885
    x8        obj1                            1
    x8        c28                           191
    x8        c36                           904
    x8        c44                           403
    x8        c47                           114
    x9        obj1                            1
    x9        c14                           718
    x9        c34                           911
    x10       obj1                            1
    x10       c17                           465
    x10       c20                           575
    x10       c21                           479
    x10       c23                           115
    x10       c27                           501
    x10       c29                           512
    x11       obj1                            1
    x11       c1                            745
    x11       c16                           434
    x11       c17                           762
    x11       c26                           644
    x11       c33                           523
    x11       c42                           493
    x12       obj1                            1
    x12       c3                            823
    x12       c31                           576
    x12       c52                           276
    x13       obj1                            1
    x13       c5                            113
    x13       c14                           422
    x13       c22                           525
    x13       c28                           205
    x13       c46                           626
    x13       c48                           667
    x13       c56                           333
    x13       c57                           212
    x14       obj1                            1
    x14       c8                            972
    x14       c12                           801
    x14       c15                           772
    x14       c37                           683
    x14       c40                           476
    x14       c48                           364
    x14       c54                           707
    x15       obj1                            1
    x15       c6                            841
    x15       c12                           265
    x15       c17                           696
    x15       c20                           770
    x15       c31                           250
    x15       c44                           279
    x15       c51                           243
    x16       obj1                            1
    x16       c12                           597
    x16       c18                           443
    x16       c21                           225
    x16       c22                           242
    x16       c33                           585
    x16       c38                           239
    x16       c51                           979
    x16       c54                           507
    x16       c55                           198
    x16       c56                           238
    x17       obj1                            1
    x17       c8                            897
    x17       c9                            740
    x17       c11                           582
    x17       c22                           783
    x17       c26                           311
    x17       c32                           474
    x17       c43                           461
    x17       c50                           528
    x17       c54                           178
    x18       obj1                            1
    x18       c15                           862
    x18       c16                           807
    x18       c21                           482
    x18       c29                           914
    x18       c35                           218
    x18       c58                           783
    x19       obj1                            1
    x19       c1                            761
    x19       c2                            200
    x19       c16                           304
    x19       c25                           114
    x19       c31                           451
    x20       obj1                            1
    x20       c3                            888
    x20       c19                           336
    x20       c36                           822
    x20       c60                           143
    x21       obj1                            1
    x21       c2                            440
    x21       c23                           543
    x21       c27                           570
    x21       c29                           761
    x21       c40                           486
    x21       c41                           546
    x21       c45                           547
    x21       c47                           875
    x21       c51                           339
    x21       c55                           610
    x22       obj1                            1
    x22       c5                            162
    x22       c7                            777
    x22       c8                            426
    x22       c18                           738
    x22       c26                           510
    x23       obj1                            1
    x23       c14                           343
    x23       c23                           716
    x23       c28                           587
    x23       c30                           996
    x23       c36                           867
    x23       c56                           995
    x24       obj1                            1
    x24       c6                            918
    x24       c10                           744
    x24       c14                           129
    x24       c30                           627
    x24       c31                           606
    x24       c39                           302
    x24       c46                           881
    x24       c52                           230
    x25       obj1                            1
    x25       c19                           991
    x25       c51                           866
    x25       c53                           134
    x25       c60                           529
    x26       obj1                            1
    x26       c19                           630
    x26       c28                           897
    x26       c29                           936
    x26       c34                           263
    x26       c38                           110
    x26       c49                           650
    x26       c52                           526
    x27       obj1                            1
    x27       c9                            343
    x27       c14                           449
    x27       c28                           190
    x27       c39                           757
    x28       obj1                            1
    x28       c18                           367
    x28       c24                           164
    x28       c27                           380
    x28       c37                           903
    x28       c43                           493
    x28       c45                           375
    x28       c49                           214
    x28       c56                           164
    x28       c58                           754
    x29       obj1                            1
    x29       c2                            560
    x29       c13                           127
    x29       c17                           530
    x29       c18                           197
    x29       c24                           640
    x29       c28                           445
    x29       c33                           578
    x29       c49                           716
    x30       obj1                            1
    x30       c25                           558
    x30       c27                           789
    x30       c38                           815
    x30       c56                           460
    x31       obj1                            1
    x31       c5                            384
    x31       c40                           232
    x31       c47                           935
    x32       obj1                            1
    x32       c2                            662
    x32       c12                           988
    x32       c35                           845
    x32       c43                           523
    x32       c49                           932
    x33       obj1                            1
    x33       c25                           305
    x33       c26                           281
    x33       c37                           680
    x33       c43                           133
    x33       c45                           781
    x33       c52                           235
    x33       c56                           151
    x34       obj1                            1
    x34       c3                            392
    x34       c4                            779
    x34       c7                            180
    x34       c19                           865
    x34       c26                           308
    x34       c30                           968
    x34       c34                           774
    x34       c44                           596
    x34       c54                           987
    x34       c58                           643
    x35       obj1                            1
    x35       c14                           937
    x35       c21                           112
    x35       c33                           680
    x35       c46                           462
    x35       c48                           719
    x35       c54                           721
    x35       c58                           439
    x36       obj1                            1
    x36       c11                           318
    x36       c23                           246
    x36       c25                           298
    x36       c54                           789
    x37       obj1                            1
    x37       c5                            805
    x37       c11                           512
    x37       c19                           396
    x37       c35                           123
    x37       c45                           642
    x37       c50                           932
    x38       obj1                            1
    x38       c10                           415
    x38       c42                           960
    x38       c54                           410
    x39       obj1                            1
    x39       c3                            610
    x39       c23                           485
    x39       c28                           331
    x39       c29                           640
    x39       c32                           384
    x39       c51                           527
    x39       c57                           431
    x40       obj1                            1
    x40       c17                           347
    x40       c28                           728
    x40       c29                           558
    x40       c43                           953
    x40       c47                           168
    x40       c48                           416
    x40       c58                           691
    x41       obj1                            1
    x41       c7                            297
    x41       c20                           969
    x41       c25                           624
    x41       c34                           148
    x41       c49                           728
    x41       c50                           663
    x41       c52                           705
    x41       c55                           553
    x42       obj1                            1
    x42       c43                           335
    x42       c48                           674
    x42       c57                           775
    x43       obj1                            1
    x43       c5                            756
    x43       c6                            968
    x43       c14                           248
    x43       c17                          1000
    x43       c29                           358
    x43       c32                           762
    x43       c41                           201
    x43       c44                           513
    x43       c47                           598
    x43       c56                           592
    x44       obj1                            1
    x44       c13                           461
    x44       c17                           709
    x44       c30                           401
    x45       obj1                            1
    x45       c34                           470
    x45       c40                           771
    x45       c55                           215
    x46       obj1                            1
    x46       c3                            386
    x46       c5                            790
    x46       c10                           846
    x46       c17                           777
    x46       c20                           883
    x46       c21                           658
    x46       c25                           743
    x46       c32                           122
    x46       c36                           938
    x46       c39                           528
    x46       c44                           947
    x47       obj1                            1
    x47       c3                            566
    x47       c12                           264
    x47       c17                           131
    x47       c28                           647
    x47       c31                           354
    x47       c59                           512
    x48       obj1                            1
    x48       c1                            195
    x48       c36                           758
    x49       obj1                            1
    x49       c3                            475
    x49       c5                            695
    x49       c18                           415
    x49       c39                           776
    x49       c50                           691
    x49       c57                           554
    x50       obj1                            1
    x50       c7                            117
    x50       c15                           998
    x50       c20                           652
    x50       c24                           414
    x50       c34                           716
    x50       c59                           965
    x51       obj1                            1
    x51       c8                            358
    x51       c21                           181
    x52       obj1                            1
    x52       c14                           198
    x52       c26                           265
    x52       c36                           298
    x52       c51                           831
    x52       c52                           838
    x52       c60                           918
    x53       obj1                            1
    x53       c1                            317
    x53       c11                           768
    x53       c18                           456
    x53       c23                           267
    x53       c30                           136
    x53       c44                           998
    x53       c52                           695
    x54       obj1                            1
    x54       c3                            557
    x54       c12                           828
    x54       c21                           690
    x54       c24                           338
    x54       c38                           504
    x55       obj1                            1
    x55       c7                            228
    x55       c18                           560
    x55       c21                           793
    x55       c24                           386
    x55       c37                           378
    x56       obj1                            1
    x56       c1                            221
    x56       c2                            584
    x56       c5                            421
    x56       c14                           528
    x56       c29                           530
    x56       c37                           571
    x56       c42                           443
    x57       obj1                            1
    x57       c2                            164
    x57       c40                           399
    x58       obj1                            1
    x58       c6                            509
    x58       c29                           514
    x58       c49                           932
    x58       c50                           176
    x59       obj1                            1
    x59       c4                            604
    x59       c15                           142
    x59       c42                           967
    x59       c47                           810
    x59       c55                           667
    x59       c57                           443
    x60       obj1                            1
    x60       c44                           776
    x60       c48                           197
    x60       c49                           859
    MARK0001  'MARKER'                 'INTEND'
RHS
    rhs       c1                           1120
    rhs       c2                           1485
    rhs       c3                           2349
    rhs       c4                            825
    rhs       c5                           2338
    rhs       c6                           1618
    rhs       c7                           1399
    rhs       c8                           1327
    rhs       c9                           1034
    rhs       c10                          1003
    rhs       c11                          1090
    rhs       c12                          2668
    rhs       c13                           573
    rhs       c14                          1986
    rhs       c15                          1387
    rhs       c16                           773
    rhs       c17                          2709
    rhs       c18                          1974
    rhs       c19                          1609
    rhs       c20                          2231
    rhs       c21                          1810
    rhs       c22                           775
    rhs       c23                          1527
    rhs       c24                          1360
    rhs       c25                          1321
    rhs       c26                          2238
    rhs       c27                          1120
    rhs       c28                          2111
    rhs       c29                          2862
    rhs       c30                          2269
    rhs       c31                          1119
    rhs       c32                          1114
    rhs       c33                          1183
    rhs       c34                          1641
    rhs       c35                          1185
    rhs       c36                          2294
    rhs       c37                          1755
    rhs       c38                          1313
    rhs       c39                          1182
    rhs       c40                          2149
    rhs       c41                          1110
    rhs       c42                          1432
    rhs       c43                          1577
    rhs       c44                          2735
    rhs       c45                          1173
    rhs       c46                          1438
    rhs       c47                          1750
    rhs       c48                          1519
    rhs       c49                          2640
    rhs       c50                          1495
    rhs       c51                          1893
    rhs       c52                          1753
    rhs       c53                           901
    rhs       c54                          2304
    rhs       c55                          1122
    rhs       c56                          1843
    rhs       c57                          1510
    rhs       c58                          1655
    rhs       c59                           872
    rhs       c60                          1313
BOUNDS
 LI bnd       x1        0
 LI bnd       x2        0
 LI bnd       x3        0
 LI bnd       x4        0
 LI bnd       x5        0
 LI bnd       x6        0
 LI bnd       x7        0
 LI bnd       x8        0
 LI bnd       x9        0
 LI bnd       x10       0
 LI bnd       x11       0
 LI bnd       x12       0
 LI bnd       x13       0
 LI bnd       x14       0
 LI bnd       x15       0
 LI bnd       x16       0
 LI bnd       x17       0
 LI bnd       x18       0
 LI bnd       x19       0
 LI bnd       x20       0
 LI bnd       x21       0
 LI bnd       x22       0
 LI bnd       x23       0
 LI bnd       x24       0
 LI bnd       x25       0
 LI bnd       x26       0
 LI bnd       x27       0
 LI bnd       x28       0
 LI bnd       x29       0
 LI bnd       x30       0
 LI bnd       x31       0
 LI bnd       x32       0
 LI bnd       x33       0
 LI bnd       x34       0
 LI bnd       x35       0
 LI bnd       x36       0
 LI bnd       x37       0
 LI bnd       x38       0
 LI bnd       x39       0
 LI bnd       x40       0
 LI bnd       x41       0
 LI bnd       x42       0
 LI bnd       x43       0
 LI bnd       x44       0
 LI bnd       x45       0
 LI bnd       x46       0
 LI bnd       x47       0
 LI bnd       x48       0
 LI bnd       x49       0
 LI bnd       x50       0
 LI bnd       x51       0
 LI bnd       x52       0
 LI bnd       x53       0
 LI bnd       x54       0
 LI bnd       x55       0
 LI bnd       x56       0
 LI bnd       x57       0
 LI bnd       x58       0
 LI bnd       x59       0
 LI bnd       x60       0
ENDATA
